benchmarks/bfuzz0/1074920909294731253362112433123318305.smt2
(set-logic QF_FP)
(declare-const x0 (_ FloatingPoint 8 24))
(declare-const x1 (_ FloatingPoint 8 24))
(declare-const x2 (_ FloatingPoint 8 24))
(declare-const x3 (_ FloatingPoint 8 24))
(declare-const x4 (_ FloatingPoint 8 24))
(declare-const x5 (_ FloatingPoint 8 24))
(declare-const x6 (_ FloatingPoint 8 24))
(declare-const x7 (_ FloatingPoint 8 24))
(declare-const x8 (_ FloatingPoint 8 24))
(declare-const x9 (_ FloatingPoint 8 24))
(declare-const x10 (_ FloatingPoint 8 24))
(declare-const x11 (_ FloatingPoint 8 24))
(declare-const x12 (_ FloatingPoint 8 24))
(assert (fp.geq (fp.mul RNE x6 x8) (fp.neg x9)))
(assert (fp.leq (fp.add RNE x2 x2) (fp.add RNE x0 x7)))
(assert (fp.lt (fp.mul RNE x6 x9) (fp.add RNE x4 x5)))
(assert (fp.eq (fp.add RNE x1 x7) (fp.sub RNE x8 x0)))
(assert (fp.lt (fp.neg x9) (fp.div RNE x5 x6)))
(assert (fp.geq (fp.div RNE x1 x0) (fp.div RNE x5 x11)))
(assert (fp.gt (fp.mul RNE x12 x6) (fp.sub RNE x11 x1)))
(assert (fp.gt (fp.mul RNE x1 x3) (fp.sub RNE x3 x8)))
(assert (fp.eq (fp.add RNE x4 x12) (fp.div RNE x8 x3)))
(assert (fp.leq (fp.div RNE x7 x3) (fp.div RNE x0 x4)))
(assert (fp.leq (fp.sub RNE x1 x3) (fp.div RNE x7 x11)))
(assert (fp.geq (fp.add RNE x12 x4) (fp.add RNE x0 x9)))
(assert (fp.geq (fp.sub RNE x12 x6) (fp.neg x6)))
(assert (fp.eq (fp.sub RNE x7 x12) (fp.neg x5)))
(assert (fp.eq (fp.add RNE x11 x5) (fp.mul RNE x0 x2)))
(assert (fp.geq (fp.div RNE x5 x0) (fp.mul RNE x6 x8)))
(assert (fp.leq (fp.add RNE x12 x2) (fp.div RNE x12 x0)))
(assert (fp.leq (fp.mul RNE x8 x1) (fp.add RNE x2 x11)))
(check-sat)
