db/data/1074920909294731253362112433123318305.z3.out
sat
-------------------
568.544170624
